param d := 2;

param n_individuals := 6;

param a : 1 2 :=
    1 0.1 0.1
    2 0.0 0.1
    3 1.0 1.1
    4 0.9 0.9
    5 2.5 2.5
    6 2.0 3.0
;

param demands :=
    1 1
    2 1
    3 1
    4 1
    5 1
    6 1
;

param p := 3;

param Q :=
    1 2
    2 2
    3 2
;